BAYES
144
2 2 2 2 2 2 2 2 2 2 2 2 2 2 2 2 2 2 2 2 2 2 2 2 2 2 2 2 2 2 2 2 2 2 2 2 2 2 2 2 2 2 2 2 2 2 2 2 2 2 2 2 2 2 2 2 2 2 2 2 2 2 2 2 2 2 2 2 2 2 2 2 2 2 2 2 2 2 2 2 2 2 2 2 2 2 2 2 2 2 2 2 2 2 2 2 2 2 2 2 2 2 2 2 2 2 2 2 2 2 2 2 2 2 2 2 2 2 2 2 2 2 2 2 2 2 2 2 2 2 2 2 2 2 2 2 2 2 2 2 2 2 2 2
144
3 12 1 0
3 13 2 1
3 14 3 2
3 15 4 3
3 16 5 4
3 17 6 5
3 18 7 6
3 19 8 7
3 20 9 8
3 21 10 9
3 22 11 10
2 23 11
3 24 13 12
3 25 14 13
3 26 15 14
3 27 16 15
3 28 17 16
3 29 18 17
3 30 19 18
3 31 20 19
3 32 21 20
3 33 22 21
3 34 23 22
2 35 23
3 36 25 24
3 37 26 25
3 38 27 26
3 39 28 27
3 40 29 28
3 41 30 29
3 42 31 30
3 43 32 31
3 44 33 32
3 45 34 33
3 46 35 34
2 47 35
3 48 37 36
3 49 38 37
3 50 39 38
3 51 40 39
3 52 41 40
3 53 42 41
3 54 43 42
3 55 44 43
3 56 45 44
3 57 46 45
3 58 47 46
2 59 47
3 60 49 48
3 61 50 49
3 62 51 50
3 63 52 51
3 64 53 52
3 65 54 53
3 66 55 54
3 67 56 55
3 68 57 56
3 69 58 57
3 70 59 58
2 71 59
3 72 61 60
3 73 62 61
3 74 63 62
3 75 64 63
3 76 65 64
3 77 66 65
3 78 67 66
3 79 68 67
3 80 69 68
3 81 70 69
3 82 71 70
2 83 71
3 84 73 72
3 85 74 73
3 86 75 74
3 87 76 75
3 88 77 76
3 89 78 77
3 90 79 78
3 91 80 79
3 92 81 80
3 93 82 81
3 94 83 82
2 95 83
3 96 85 84
3 97 86 85
3 98 87 86
3 99 88 87
3 100 89 88
3 101 90 89
3 102 91 90
3 103 92 91
3 104 93 92
3 105 94 93
3 106 95 94
2 107 95
3 108 97 96
3 109 98 97
3 110 99 98
3 111 100 99
3 112 101 100
3 113 102 101
3 114 103 102
3 115 104 103
3 116 105 104
3 117 106 105
3 118 107 106
2 119 107
3 120 109 108
3 121 110 109
3 122 111 110
3 123 112 111
3 124 113 112
3 125 114 113
3 126 115 114
3 127 116 115
3 128 117 116
3 129 118 117
3 130 119 118
2 131 119
3 132 121 120
3 133 122 121
3 134 123 122
3 135 124 123
3 136 125 124
3 137 126 125
3 138 127 126
3 139 128 127
3 140 129 128
3 141 130 129
3 142 131 130
2 143 131
2 133 132
2 134 133
2 135 134
2 136 135
2 137 136
2 138 137
2 139 138
2 140 139
2 141 140
2 142 141
2 143 142
1  143
8
1 0 1 0 1 0 1 0
8
0 1 0 1 1 0 0 1
8
0 1 0 1 1 0 0 1
8
1 0 0 1 0 1 0 1
8
0 1 0 1 1 0 1 0
8
0 1 1 0 0 1 0 1
8
0 1 0 1 0 1 0 1
8
1 0 0 1 0 1 0 1
8
0 1 0 1 1 0 0 1
8
1 0 0 1 1 0 1 0
8
1 0 1 0 0 1 1 0
4
1 0 1 0
8
1 0 1 0 0 1 0 1
8
1 0 1 0 0 1 1 0
8
1 0 1 0 1 0 1 0
8
1 0 1 0 1 0 1 0
8
0 1 1 0 0 1 0 1
8
1 0 1 0 0 1 1 0
8
1 0 1 0 0 1 1 0
8
0 1 0 1 1 0 0 1
8
0 1 0 1 0 1 1 0
8
0 1 1 0 0 1 1 0
8
1 0 0 1 0 1 1 0
4
1 0 1 0
8
1 0 0 1 0 1 0 1
8
1 0 0 1 1 0 0 1
8
0 1 0 1 1 0 0 1
8
1 0 1 0 0 1 0 1
8
0 1 0 1 0 1 1 0
8
0.491579331927673 0.508420668072327 0.4939921167576349 0.5060078832423651 0.5755294992003454 0.42447050079965465 0.6005087930084022 0.39949120699159774
8
0 1 0 1 1 0 0 1
8
0 1 1 0 0 1 0 1
8
0 1 1 0 1 0 0 1
8
1 0 1 0 1 0 1 0
8
1 0 0 1 1 0 0 1
4
1 0 0 1
8
0 1 1 0 0 1 1 0
8
1 0 1 0 1 0 1 0
8
0 1 1 0 0 1 1 0
8
0 1 0 1 1 0 1 0
8
0 1 0 1 1 0 0 1
8
0 1 1 0 1 0 1 0
8
1 0 1 0 0 1 1 0
8
1 0 1 0 0 1 0 1
8
1 0 1 0 1 0 1 0
8
0 1 1 0 0 1 1 0
8
1 0 1 0 0 1 1 0
4
0 1 0 1
8
0 1 1 0 1 0 0 1
8
0 1 0 1 0 1 1 0
8
1 0 1 0 1 0 1 0
8
1 0 0 1 0 1 0 1
8
1 0 0 1 1 0 1 0
8
0 1 0 1 1 0 0 1
8
0 1 1 0 0 1 0 1
8
0 1 0 1 1 0 1 0
8
0 1 0 1 0 1 0 1
8
1 0 0 1 1 0 1 0
8
0 1 0 1 1 0 0 1
4
0 1 1 0
8
1 0 1 0 0 1 0 1
8
1 0 0 1 1 0 1 0
8
1 0 0 1 1 0 0 1
8
1 0 1 0 1 0 0 1
8
0 1 1 0 0 1 1 0
8
0.5389507482595762 0.4610492517404239 0.3775974710082912 0.6224025289917088 0.9705056001522148 0.02949439984778522 0.054251308367830244 0.9457486916321698
8
1 0 0 1 1 0 1 0
8
1 0 1 0 0 1 0 1
8
0 1 0 1 1 0 1 0
8
0.561935468407773 0.4380645315922271 0.1722444352104606 0.8277555647895393 0.49291200849194344 0.5070879915080566 0.5743738696099082 0.42562613039009184
8
0 1 1 0 0 1 0 1
4
0 1 1 0
8
0.2981896247700997 0.7018103752299003 0.7310636735155832 0.2689363264844168 0.8104229380905951 0.1895770619094049 0.9005545467317542 0.09944545326824578
8
1 0 0 1 0 1 1 0
8
1 0 1 0 0 1 1 0
8
1 0 0 1 1 0 1 0
8
1 0 0 1 1 0 0 1
8
1 0 1 0 1 0 0 1
8
0 1 1 0 1 0 0 1
8
1 0 1 0 1 0 1 0
8
1 0 0 1 0 1 1 0
8
1 0 0 1 0 1 1 0
8
1 0 0 1 0 1 0 1
4
1 0 1 0
8
0 1 1 0 1 0 0 1
8
0 1 0 1 0 1 0 1
8
0 1 0 1 1 0 0 1
8
0.6155417659789476 0.3844582340210524 0.9106497630783755 0.08935023692162443 0.22313454314397763 0.7768654568560224 0.18508142381884496 0.814918576181155
8
1 0 0 1 0 1 0 1
8
1 0 0 1 0 1 0 1
8
0.6088882587738695 0.3911117412261305 0.5228264105862018 0.4771735894137981 0.18585773489812382 0.8141422651018763 0.6474211606188669 0.35257883938113305
8
0.17356595320123616 0.8264340467987639 0.7817278996889967 0.21827210031100322 0.6362250083118483 0.36377499168815175 0.35063396745325004 0.64936603254675
8
1 0 0 1 1 0 0 1
8
0 1 1 0 1 0 1 0
8
1 0 0 1 1 0 0 1
4
0 1 1 0
8
0 1 1 0 1 0 1 0
8
0 1 1 0 0 1 1 0
8
0 1 0 1 0 1 1 0
8
0.2560257959376549 0.743974204062345 0.48552415072015453 0.5144758492798455 0.12132213097076655 0.8786778690292335 0.516922210555434 0.4830777894445659
8
0.40500228832048873 0.5949977116795113 0.28457859327406426 0.7154214067259358 0.9647886671524605 0.03521133284753953 0.21405090353325562 0.7859490964667444
8
0 1 0 1 0 1 0 1
8
1 0 1 0 0 1 0 1
8
0 1 1 0 0 1 0 1
8
0.2903271241237081 0.7096728758762919 0.6363680879860198 0.3636319120139801 0.4739049057732008 0.5260950942267992 0.4491778682401582 0.5508221317598417
8
0 1 1 0 1 0 1 0
8
0 1 1 0 1 0 1 0
4
0 1 1 0
8
0 1 0 1 1 0 1 0
8
0.6020620049114058 0.3979379950885942 0.4917852943819974 0.5082147056180025 0.5000848115043056 0.49991518849569444 0.6827995726871862 0.3172004273128137
8
0 1 1 0 0 1 0 1
8
0 1 0 1 1 0 0 1
8
1 0 0 1 1 0 1 0
8
1 0 1 0 0 1 0 1
8
1 0 0 1 1 0 0 1
8
1 0 0 1 1 0 1 0
8
0 1 0 1 1 0 0 1
8
0 1 0 1 0 1 1 0
8
0 1 1 0 0 1 1 0
4
1 0 1 0
8
0 1 0 1 1 0 1 0
8
0 1 1 0 0 1 0 1
8
1 0 1 0 0 1 0 1
8
0 1 0 1 0 1 1 0
8
0 1 1 0 0 1 1 0
8
0 1 1 0 0 1 0 1
8
0 1 1 0 0 1 0 1
8
0 1 1 0 0 1 0 1
8
1 0 0 1 0 1 0 1
8
0.822259902982902 0.1777400970170981 0.7208326595173806 0.2791673404826194 0.08489124452429334 0.9151087554757067 0.5605793722072596 0.4394206277927404
8
1 0 0 1 1 0 0 1
4
1 0 1 0
4
0 1 0 1
4
1 0 1 0
4
0 1 0 1
4
0.920325210052657 0.07967478994734302 0.2654143456057312 0.7345856543942688
4
0.5128528880990858 0.48714711190091414 0.5443619452456335 0.4556380547543666
4
0 1 1 0
4
0 1 1 0
4
0.7185783498647724 0.28142165013522763 0.5331153319117591 0.4668846680882408
4
1 0 0 1
4
0 1 1 0
4
1 0 1 0
2
0 1
